c Result of efficient AIG-to-CNF conversion using package CNF
p cnf 63 179
-2 3 33 0
-2 -3 -33 0
2 -3 33 0
2 3 -33 0
-3 -4 -28 0
-3 4 28 0
3 4 -28 0
3 -4 28 0
-4 5 21 0
-4 -5 -21 0
4 -5 21 0
4 5 -21 0
-5 6 18 0
-5 -6 -18 0
5 -6 18 0
5 6 -18 0
-6 7 12 0
-6 -7 -12 0
6 -7 12 0
6 7 -12 0
-7 -8 -11 0
-7 8 11 0
7 8 -11 0
7 -8 11 0
-8 -9 -10 0
-8 9 10 0
8 9 -10 0
8 -9 10 0
9 -55 -62 0
-9 55 0
-9 62 0
10 -59 -60 0
-10 59 0
-10 60 0
11 -53 -54 0
-11 53 0
-11 54 0
-12 13 14 0
-12 13 15 0
12 -13 0
12 -14 -15 0
13 -54 -55 -59 -60 0
-13 60 0
-13 54 0
-13 59 0
-13 55 0
14 -51 -53 0
-14 51 0
-14 53 0
-15 -16 -17 0
-15 16 17 0
15 16 -17 0
15 -16 17 0
16 -55 -60 0
-16 55 0
-16 60 0
17 -54 -59 0
-17 54 0
-17 59 0
-18 -19 -20 0
-18 19 20 0
18 19 -20 0
18 -19 20 0
19 -50 -51 0
-19 50 0
-19 51 0
20 -48 -49 0
-20 48 0
-20 49 0
-21 22 23 0
-21 23 27 0
-21 22 27 0
21 -23 -27 0
21 -22 -23 0
21 -22 -27 0
-22 14 15 0
-22 -14 -15 0
22 -14 15 0
22 14 -15 0
-23 24 26 0
-23 25 26 0
-23 24 25 0
23 -24 -25 0
23 -25 -26 0
23 -24 -26 0
24 -54 -55 0
-24 54 0
-24 55 0
25 -51 -59 0
-25 51 0
-25 59 0
26 -49 -53 0
-26 49 0
-26 53 0
27 -49 -50 0
-27 49 0
-27 50 0
28 27 -29 -30 -32 0
28 -27 29 -30 -32 0
-28 30 0
-28 27 29 0
-28 32 0
-28 -27 -29 0
-29 22 23 0
-29 -22 -23 0
29 -22 23 0
29 22 -23 0
-30 26 31 0
-30 -26 -31 0
30 -26 31 0
30 26 -31 0
-31 -24 -25 0
-31 24 25 0
31 24 -25 0
31 -24 25 0
32 -49 -51 -55 -59 0
-32 59 0
-32 49 0
-32 55 0
-32 51 0
-33 34 41 0
-33 -34 -41 0
33 -34 41 0
33 34 -41 0
-34 35 37 0
-34 -35 -37 0
34 -35 37 0
34 35 -37 0
-35 14 36 0
-35 27 36 0
-35 14 27 0
35 -14 -27 0
35 -27 -36 0
35 -14 -36 0
36 -25 -26 0
-36 25 0
-36 26 0
-37 38 39 0
-37 -38 -39 0
37 -38 39 0
37 38 -39 0
-38 -8 -13 0
-38 8 13 0
38 8 -13 0
38 -8 13 0
-39 19 40 0
-39 -19 -40 0
39 -19 40 0
39 19 -40 0
-40 -11 -20 0
-40 11 20 0
40 11 -20 0
40 -11 20 0
-41 15 42 0
-41 42 44 0
-41 15 44 0
41 -15 -44 0
41 -42 -44 0
41 -15 -42 0
-42 36 43 0
-42 -36 -43 0
42 -36 43 0
42 36 -43 0
-43 -14 -27 0
-43 14 27 0
43 14 -27 0
43 -14 27 0
-44 32 45 0
-44 24 32 0
-44 24 45 0
44 -24 -32 0
44 -32 -45 0
44 -24 -45 0
-45 -25 -26 0
-45 25 26 0
45 25 -26 0
45 -25 26 0
-63 0
2 0

